solution status: time limit reached
objective value:                                   47
$_114_z                                            18 	(obj:0)
$_267_y                                            -1 	(obj:0)
$_267_z                                            23 	(obj:0)
$_97_y                                              2 	(obj:0)
$_97_z                                             19 	(obj:0)
$_98_y                                              2 	(obj:0)
$_98_z                                             18 	(obj:0)
$_283_y                                            -1 	(obj:0)
$_283_z                                            20 	(obj:0)
$_166_y                                             5 	(obj:0)
$_166_z                                            24 	(obj:0)
$_117_y                                             2 	(obj:0)
$_117_z                                            16 	(obj:0)
$_295_y                                             3 	(obj:0)
$_295_z                                            22 	(obj:0)
$_319_y                                             1 	(obj:0)
$_319_z                                            17 	(obj:0)
$_311_y                                             3 	(obj:0)
$_311_z                                            21 	(obj:0)
$_231_y                                             4 	(obj:0)
$_231_z                                            23 	(obj:0)
$_183_y                                             4 	(obj:0)
$_183_z                                            24 	(obj:0)
$_279_y                                             3 	(obj:0)
$_279_z                                            23 	(obj:0)
$_106_y                                             9 	(obj:0)
$_106_z                                            24 	(obj:0)
$_100_y                                            -1 	(obj:0)
$_100_z                                            17 	(obj:0)
$_96_z                                             17 	(obj:0)
$_170_y                                             9 	(obj:0)
$_170_z                                            25 	(obj:0)
$_203_y                                             7 	(obj:0)
$_203_z                                            24 	(obj:0)
$_99_y                                              2 	(obj:0)
$_99_z                                             15 	(obj:0)
$_115_y                                             2 	(obj:0)
$_115_z                                            17 	(obj:0)
$_299_y                                            -1 	(obj:0)
$_299_z                                            19 	(obj:0)
$_216_y                                             6 	(obj:0)
$_216_z                                            23 	(obj:0)
$_200_y                                             4 	(obj:0)
$_200_z                                            25 	(obj:0)
$_118_y                                            -1 	(obj:0)
$_118_z                                            18 	(obj:0)
$_263_y                                             2 	(obj:0)
$_263_z                                            25 	(obj:0)
$_232_y                                             5 	(obj:0)
$_232_z                                            23 	(obj:0)
$_184_y                                             5 	(obj:0)
$_184_z                                            25 	(obj:0)
$_94_y                                              5 	(obj:0)
$_94_z                                             22 	(obj:0)
$_219_y                                             3 	(obj:0)
$_219_z                                            25 	(obj:0)
$_199_y                                             6 	(obj:0)
$_199_z                                            22 	(obj:0)
$_296_y                                             2 	(obj:0)
$_296_z                                            21 	(obj:0)
$_127_y                                            -1 	(obj:0)
$_127_z                                            21 	(obj:0)
$_187_y                                             8 	(obj:0)
$_187_z                                            25 	(obj:0)
$_112_y                                             4 	(obj:0)
$_112_z                                            21 	(obj:0)
$_264_y                                             2 	(obj:0)
$_264_z                                            24 	(obj:0)
$_247_y                                             3 	(obj:0)
$_247_z                                            24 	(obj:0)
$_235_y                                             1 	(obj:0)
$_235_z                                            24 	(obj:0)
$_248_y                                             2 	(obj:0)
$_248_z                                            22 	(obj:0)
$_167_y                                             6 	(obj:0)
$_167_z                                            25 	(obj:0)
$_215_y                                             6 	(obj:0)
$_215_z                                            24 	(obj:0)
$_251_y                                            -1 	(obj:0)
$_251_z                                            24 	(obj:0)
$_280_y                                             2 	(obj:0)
$_280_z                                            23 	(obj:0)
$_116_y                                             1 	(obj:0)
$_116_z                                            18 	(obj:0)
x92                                                 1 	(obj:1)
x100                                                1 	(obj:1)
x111                                                1 	(obj:1)
x113                                                1 	(obj:1)
x117                                                1 	(obj:1)
x119                                                1 	(obj:1)
x123                                                3 	(obj:1)
x127                                                1 	(obj:1)
x152                                                1 	(obj:1)
x165                                                2 	(obj:1)
x169                                                1 	(obj:1)
x175                                                3 	(obj:1)
x179                                                2 	(obj:1)
x182                                                2 	(obj:1)
x183                                                3 	(obj:1)
x185                                                1 	(obj:1)
x187                                                2 	(obj:1)
x188                                                2 	(obj:1)
x190                                                1 	(obj:1)
x193                                                3 	(obj:1)
x194                                                2 	(obj:1)
x203                                                1 	(obj:1)
x205                                                1 	(obj:1)
x213                                                1 	(obj:1)
x216                                                1 	(obj:1)
x217                                                2 	(obj:1)
x218                                                1 	(obj:1)
x221                                                3 	(obj:1)
x233                                                1 	(obj:1)
x234                                                1 	(obj:1)
